c Created with the Wolfram Language : www.wolfram.com
c 
p edge 100 497
e 2 4
e 4 7
e 2 10
e 6 10
e 7 11
e 5 12
e 7 12
e 1 14
e 5 14
e 9 14
e 10 14
e 5 15
e 6 15
e 13 15
e 3 16
e 4 17
e 12 17
e 14 17
e 5 18
e 18 19
e 5 20
e 10 20
e 20 21
e 3 22
e 6 22
e 8 22
e 5 23
e 6 23
e 16 23
e 20 23
e 21 23
e 7 24
e 16 24
e 3 25
e 4 25
e 16 25
e 18 25
e 18 26
e 1 27
e 18 27
e 14 28
e 21 28
e 27 28
e 8 29
e 9 29
e 10 29
e 18 29
e 20 30
e 28 30
e 4 31
e 10 31
e 17 31
e 20 31
e 25 31
e 26 31
e 7 32
e 14 32
e 19 32
e 16 33
e 28 33
e 2 34
e 3 34
e 25 34
e 30 34
e 1 35
e 26 35
e 28 35
e 11 36
e 12 36
e 13 36
e 8 37
e 22 38
e 30 38
e 36 38
e 8 39
e 9 39
e 18 39
e 25 39
e 27 39
e 36 39
e 3 40
e 10 40
e 14 40
e 15 40
e 24 40
e 31 40
e 2 41
e 31 41
e 5 42
e 35 42
e 40 42
e 29 43
e 33 43
e 36 43
e 4 44
e 7 44
e 12 44
e 17 44
e 31 44
e 3 45
e 8 45
e 20 45
e 7 46
e 14 46
e 15 46
e 26 46
e 35 46
e 44 46
e 8 47
e 32 47
e 33 47
e 44 47
e 1 48
e 6 48
e 10 48
e 12 48
e 24 48
e 38 48
e 43 48
e 10 49
e 17 49
e 20 49
e 21 49
e 22 49
e 41 49
e 44 49
e 2 50
e 3 50
e 15 50
e 17 50
e 23 50
e 25 50
e 26 50
e 39 50
e 48 50
e 2 51
e 11 51
e 17 51
e 19 51
e 36 51
e 16 52
e 1 53
e 13 53
e 23 53
e 26 53
e 31 53
e 47 53
e 4 54
e 12 54
e 40 54
e 53 54
e 32 55
e 49 55
e 54 55
e 5 56
e 19 56
e 20 56
e 24 56
e 29 56
e 37 56
e 44 56
e 53 56
e 12 57
e 35 57
e 38 57
e 1 58
e 6 58
e 15 58
e 35 58
e 38 58
e 42 58
e 56 58
e 14 59
e 29 59
e 31 59
e 43 59
e 45 59
e 47 59
e 2 60
e 21 60
e 22 60
e 27 60
e 5 61
e 11 61
e 20 61
e 22 61
e 30 61
e 31 61
e 32 61
e 35 61
e 41 61
e 50 61
e 56 61
e 4 62
e 19 62
e 23 62
e 34 62
e 41 62
e 42 62
e 5 63
e 20 63
e 33 63
e 47 63
e 51 63
e 56 63
e 29 64
e 44 64
e 48 64
e 51 64
e 5 65
e 10 65
e 13 65
e 28 65
e 31 65
e 39 65
e 63 65
e 1 66
e 21 66
e 25 66
e 35 66
e 50 66
e 11 67
e 41 67
e 55 67
e 58 67
e 11 68
e 25 68
e 27 68
e 38 68
e 39 68
e 42 68
e 43 68
e 47 68
e 55 68
e 1 69
e 10 69
e 21 69
e 23 69
e 27 69
e 30 69
e 41 69
e 44 69
e 6 70
e 36 70
e 39 70
e 43 70
e 1 71
e 18 71
e 36 71
e 37 71
e 39 71
e 54 71
e 4 72
e 5 72
e 8 72
e 12 72
e 29 72
e 35 72
e 40 72
e 44 72
e 61 72
e 71 72
e 20 73
e 53 73
e 71 73
e 8 74
e 16 74
e 19 74
e 20 74
e 22 74
e 31 74
e 43 74
e 45 74
e 72 74
e 1 75
e 7 75
e 22 75
e 36 75
e 44 75
e 47 75
e 51 75
e 55 75
e 56 75
e 61 75
e 64 75
e 73 75
e 1 76
e 16 76
e 24 76
e 26 76
e 44 76
e 74 76
e 6 77
e 33 77
e 41 77
e 59 77
e 60 77
e 63 77
e 67 77
e 75 77
e 1 78
e 9 78
e 23 78
e 26 78
e 35 78
e 40 78
e 48 78
e 76 78
e 2 79
e 5 79
e 18 79
e 22 79
e 69 79
e 23 80
e 43 80
e 67 80
e 71 80
e 72 80
e 74 80
e 76 80
e 31 81
e 37 81
e 42 81
e 57 81
e 78 81
e 4 82
e 5 82
e 6 82
e 20 82
e 33 82
e 45 82
e 46 82
e 51 82
e 54 82
e 58 82
e 62 82
e 68 82
e 7 83
e 25 83
e 26 83
e 44 83
e 45 83
e 47 83
e 56 83
e 63 83
e 69 83
e 28 84
e 31 84
e 40 84
e 42 84
e 57 84
e 74 84
e 78 84
e 83 84
e 1 85
e 2 85
e 10 85
e 19 85
e 45 85
e 47 85
e 55 85
e 69 85
e 78 85
e 15 86
e 44 86
e 45 86
e 47 86
e 60 86
e 71 86
e 80 86
e 7 87
e 16 87
e 21 87
e 24 87
e 28 87
e 29 87
e 45 87
e 55 87
e 58 87
e 65 87
e 81 87
e 5 88
e 14 88
e 26 88
e 33 88
e 42 88
e 46 88
e 47 88
e 49 88
e 50 88
e 54 88
e 55 88
e 62 88
e 83 88
e 4 89
e 15 89
e 16 89
e 43 89
e 44 89
e 45 89
e 48 89
e 57 89
e 73 89
e 78 89
e 8 90
e 53 90
e 69 90
e 79 90
e 81 90
e 12 91
e 13 91
e 15 91
e 23 91
e 24 91
e 40 91
e 52 91
e 63 91
e 80 91
e 82 91
e 83 91
e 6 92
e 23 92
e 26 92
e 37 92
e 47 92
e 51 92
e 65 92
e 68 92
e 70 92
e 90 92
e 13 93
e 27 93
e 39 93
e 48 93
e 53 93
e 59 93
e 68 93
e 92 93
e 12 94
e 21 94
e 39 94
e 50 94
e 55 94
e 74 94
e 77 94
e 82 94
e 83 94
e 84 94
e 11 95
e 21 95
e 24 95
e 39 95
e 41 95
e 47 95
e 79 95
e 81 95
e 85 95
e 13 96
e 23 96
e 42 96
e 45 96
e 64 96
e 17 97
e 27 97
e 35 97
e 47 97
e 53 97
e 62 97
e 75 97
e 13 98
e 14 98
e 20 98
e 25 98
e 38 98
e 42 98
e 52 98
e 69 98
e 79 98
e 88 98
e 95 98
e 97 98
e 33 99
e 54 99
e 63 99
e 70 99
e 74 99
e 75 99
e 77 99
e 79 99
e 82 99
e 84 99
e 88 99
e 2 100
e 5 100
e 63 100
e 82 100
e 97 100
